letting maxWeight=86
letting values=[8, 9, 16, 18, 30, 11, 13, 4, 13, 9, 36, 3, 30, 19, 22, 39, 3, 36, 6, 30, 2, 25, 7, 3, 9, 21, 20, 4, 10, 2, 32, 26, 18, 27, 24, 28, 14, 20, 22, 3, 11, 30, 30, 30, 34, 28, 42, 21, 16, 9, 23, 23, 30, 6]
letting weights=[18, 7, 25, 19, 17, 25, 15, 10, 3, 20, 8, 24, 13, 10, 15, 9, 21, 17, 22, 22, 6, 1, 5, 4, 14, 18, 2, 8, 15, 9, 21, 20, 20, 7, 26, 5, 15, 6, 13, 17, 11, 26, 10, 20, 18, 5, 27, 15, 20, 5, 20, 8, 15, 1]
